s SATISFIABLE
v -1 -2 3 -4 -5 -6 -7
v -8 -9 -10 -11 -12 13 -14 -15
v -16 -17 -18 -19 -20 -21 -22 23
v -24 -25 -26 -27 -28 -29 -30 -31
v -32 -33 -34 -35 -36 -37 -38 -39
v -40 -41 -42 -43 -44 -45 -46 -47
v -48 -49 -50 -51 -52 -53 -54 -55
v -56 -57 58 -59 -60 -61 -62 -63
v -64 -65 -66 -67 -68 -69 -70 -71
v -72 -73 -74 -75 -76 -77 -78 -79
v -80 -81 -82 -83 -84 -85 -86 -87
v -88 -89 -90 -91 92 -93 -94 -95
v -96 -97 -98 -99 -100 -101 -102 -103
v -104 -105 -106 -107 108 -109 -110 -111
v -112 -113 -114 -115 -116 -117 -118 -119
v -120 -121 -122 -123 -124 -125 -126 -127
v -128 -129 -130 -131 -132 -133 -134 -135
v -136 -137 -138 -139 -140 -141 -142 -143
v -144 -145 -146 -147 -148 -149 -150 -151
v -152 -153 -154 -155 -156 -157 -158 -159
v -160 -161 -162 -163 -164 -165 -166 -167
v -168 -169 -170 -171 -172 -173 -174 -175
v -176 -177 -178 -179 -180 -181 -182 -183
v -184 -185 -186 -187 -188 -189 -190 -191
v -192 -193 -194 -195 -196 -197 -198 -199
v -200 -201 -202 -203 204 205 206 -207
v -208 -209 -210 -211 -212 -213 -214 -215
v -216 -217 -218 -219 -220 -221 -222 -223
v -224 -225 -226 -227 -228 -229 -230 -231
v -232 -233 -234 -235 -236 -237 -238 -239
v -240 -241 -242 -243 244 245 246 247
v 248 -249 -250 -251 -252 -253 -254 -255
v -256 -257 -258 -259 -260 -261 262 -263
v -264 -265 -266 -267 -268 -269 -270 -271
v -272 -273 -274 -275 -276 277 278 279
v -280 -281 -282 -283 284 285 286 287
v 288 289 290 291 -292 -293 -294 -295
v -296 -297 298 299 300 301 302 -303
v -304 305 306 307 -308 309 310 -311
v 312 313 -314 -315 -316 -317 -318 319
v -320 321 322 -323 -324 -325 326 327
v 328 329 330 -331 332 333 -334 335
v -336 337 -338 339 -340 -341 -342 343
v -344 -345 -346 -347 -348 -349 -350 -351
v -352 -353 -354 355 -356 -357 -358 -359
v -360 -361 -362 -363 -364 -365 366 -367
v 0
